(set-logic QF_LIA)

(set-info :source |
soduku 4x4 board
|)
(set-info :smt-lib-version 2.6)

; defs. constantes
(declare-fun x11 () Int)
(declare-fun x12 () Int)
(declare-fun x13 () Int)
(declare-fun x14 () Int)
(declare-fun x21 () Int)
(declare-fun x22 () Int)
(declare-fun x23 () Int)
(declare-fun x24 () Int)
(declare-fun x31 () Int)
(declare-fun x32 () Int)
(declare-fun x33 () Int)
(declare-fun x34 () Int)
(declare-fun x41 () Int)
(declare-fun x42 () Int)
(declare-fun x43 () Int)
(declare-fun x44 () Int)

...



(exit)
